(declare-const |buf':62:75:79:107| Int)
(declare-const |tmp___1':63:76:80:108| Int)
(declare-const havoc Int)
(declare-const |havoc:6:60:89:109| Int)
(declare-const |K:72:73:77:105| Int)
(declare-const |havoc:2| Int)
(declare-const tmp___1 Int)
(declare-const |in':61:74:78:106| Int)
(assert (and (< (+ (- |havoc:2|) 1) 0) (< (- havoc) 0)
               (< (+ (- havoc) |havoc:2|) 0)
               (or (not (and (<= (- |K:72:73:77:105|) 0)
                               (<= |K:72:73:77:105| 0)))
                     (= (+ |in':61:74:78:106| (- |K:72:73:77:105|)) 0))
               (or (not (<= (+ (- |K:72:73:77:105|) 1) 0))
                     (= (+ |in':61:74:78:106| (- |K:72:73:77:105|)) 0))
               (or (not (and (<= (- |K:72:73:77:105|) 0)
                               (<= |K:72:73:77:105| 0)))
                     (= (+ |buf':62:75:79:107| (- |K:72:73:77:105|)) 0))
               (or (not (<= (+ (- |K:72:73:77:105|) 1) 0))
                     (= (+ |buf':62:75:79:107| (- |K:72:73:77:105|)) 0))
               (or (and (= |K:72:73:77:105| 0)
                          (= (+ (- |tmp___1':63:76:80:108|) tmp___1) 0)
                          (= (- |buf':62:75:79:107|) 0)
                          (= (- |in':61:74:78:106|) 0))
                     (and (<= (+ (- |K:72:73:77:105|) 1) 0)
                            (<= (+ (- havoc) 2) 0) (<= (+ (- |havoc:2|) 1) 0)
                            (= (+ |buf':62:75:79:107| (- |in':61:74:78:106|)) 0)
                            (<= (+ |in':61:74:78:106| (- havoc) 1) 0)
                            (<= (+ (- |in':61:74:78:106|) 1) 0)
                            (<= (+ |in':61:74:78:106| (- |havoc:2|)) 0)))
               (<= (- |K:72:73:77:105|) 0) (<= (- |in':61:74:78:106|) 0)
               (<= (- |buf':62:75:79:107|) 0) (< (- havoc) 0)
               (< (- |havoc:2|) 0)
               (= (+ (- |buf':62:75:79:107|) |in':61:74:78:106|) 0)
               (or (and (not (= |havoc:6:60:89:109| 0))
                          (= (+ |buf':62:75:79:107| (- |havoc:2|) 2) 0))
                     (= |havoc:6:60:89:109| 0))
               (<= (- |buf':62:75:79:107|) 0)
               (< (+ |buf':62:75:79:107| (- |havoc:2|)) 0)
               (<= (+ (- |buf':62:75:79:107|) -1) 0)
               (not (< (+ |buf':62:75:79:107| (- |havoc:2|) 1) 0))))
(check-sat)
